algorithms_of_dicrete_optimalisation/L4-max_flow/matching_3_2.lp.out
Problem:    
Rows:       16
Columns:    32
Non-zeros:  48
Status:     OPTIMAL
Objective:  Max_Flow = 7 (MAXimum)

   No.   Row name   St   Activity     Lower bound   Upper bound    Marginal
------ ------------ -- ------------- ------------- ------------- -------------
     1 Conservation_1
                    NS             0             0             =             1 
     2 Conservation_10
                    NS             0             0             =         < eps
     3 Conservation_11
                    NS             0             0             =             1 
     4 Conservation_12
                    NS             0             0             =         < eps
     5 Conservation_13
                    NS             0             0             =         < eps
     6 Conservation_14
                    NS             0             0             =             1 
     7 Conservation_15
                    NS             0             0             =             1 
     8 Conservation_16
                    NS             0             0             =             1 
     9 Conservation_2
                    NS             0             0             =         < eps
    10 Conservation_3
                    NS             0             0             =             1 
    11 Conservation_4
                    NS             0             0             =             1 
    12 Conservation_5
                    NS             0             0             =             1 
    13 Conservation_6
                    NS             0             0             =             1 
    14 Conservation_7
                    NS             0             0             =             1 
    15 Conservation_8
                    NS             0             0             =             1 
    16 Conservation_9
                    NS             0             0             =             1 

   No. Column name  St   Activity     Lower bound   Upper bound    Marginal
------ ------------ -- ------------- ------------- ------------- -------------
     1 f_0_1        NU             1             0             1         < eps
     2 f_0_2        NU             1             0             1             1 
     3 f_0_3        B              1             0             1 
     4 f_0_4        NU             1             0             1         < eps
     5 f_0_5        B              1             0             1 
     6 f_0_6        B              1             0             1 
     7 f_0_7        B              1             0             1 
     8 f_0_8        B              0             0             1 
     9 f_1_11       NU             1             0             1         < eps
    10 f_1_15       B              0             0             1 
    11 f_10_17      B              1             0             1 
    12 f_6_10       NU             1             0             1             1 
    13 f_11_17      NU             1             0             1             1 
    14 f_3_11       B              0             0             1 
    15 f_8_11       NL             0             0             1         < eps
    16 f_12_17      B              0             0             1 
    17 f_13_17      B              1             0             1 
    18 f_2_13       B              1             0             1 
    19 f_14_17      NU             1             0             1             1 
    20 f_4_14       B              1             0             1 
    21 f_5_14       B              0             0             1 
    22 f_8_14       NL             0             0             1         < eps
    23 f_15_17      NU             1             0             1             1 
    24 f_2_15       NL             0             0             1            -1 
    25 f_3_15       B              1             0             1 
    26 f_16_17      NU             1             0             1             1 
    27 f_5_16       NU             1             0             1         < eps
    28 f_6_16       B              0             0             1 
    29 f_7_16       NL             0             0             1         < eps
    30 f_4_9        B              0             0             1 
    31 f_7_9        NU             1             0             1         < eps
    32 f_9_17       NU             1             0             1             1 

Karush-Kuhn-Tucker optimality conditions:

KKT.PE: max.abs.err = 0.00e+00 on row 0
        max.rel.err = 0.00e+00 on row 0
        High quality

KKT.PB: max.abs.err = 0.00e+00 on row 0
        max.rel.err = 0.00e+00 on row 0
        High quality

KKT.DE: max.abs.err = 0.00e+00 on column 0
        max.rel.err = 0.00e+00 on column 0
        High quality

KKT.DB: max.abs.err = 0.00e+00 on row 0
        max.rel.err = 0.00e+00 on row 0
        High quality

End of output
